s td 15 56 70
b 1 1 2 4 6 7 8 10 11 12 13 14 15 16 17 18 19 20 21 23 25 26 27 28 31 33 34 35 36 37 38 39 41 42 43 44 47 48 50 51 52 53 54 56 57 58 59 60 61 62 63 64 65 66 67 68 70
b 2 1 4 6 7 8 10 11 12 13 14 15 16 17 18 19 20 21 23 24 25 26 27 28 31 33 34 35 36 37 38 39 41 42 43 44 47 48 50 51 52 53 54 56 57 58 59 60 61 62 63 64 65 66 67 68 70
b 3 1 4 6 7 8 10 11 12 13 14 15 16 17 18 19 20 21 23 24 25 26 27 28 31 33 34 35 36 38 39 41 42 43 44 47 48 50 51 52 53 54 56 57 58 59 60 61 62 63 64 65 66 68 69 70
b 4 1 4 6 7 8 10 11 12 13 14 15 16 17 18 20 21 23 24 25 26 27 28 31 33 34 35 36 38 39 40 42 43 44 47 48 50 51 52 53 54 56 57 58 59 61 62 63 64 65 66 68 69 70
b 5 1 3 4 6 7 8 10 11 12 13 14 15 16 18 20 21 23 24 25 26 27 28 31 33 34 35 36 38 39 40 42 43 44 47 48 50 51 52 53 54 56 58 59 61 62 64 65 66 68 69 70
b 6 1 3 8 11 12 13 16 18 20 21 24 25 26 31 32 34 35 38 40 44 48 50 51 53 54 56 58 59 62 66 69 70
b 7 1 3 4 7 8 11 12 14 15 16 20 23 24 25 27 28 33 36 38 39 40 42 46 47 50 52 58 62 64 65 66 69
b 8 1 6 7 8 9 10 11 12 13 16 17 18 21 26 27 28 31 33 34 35 36 38 39 40 42 43 44 53 56 57 63 64 65 66 68 69 70
b 9 5 8 10 11 12 13 16 18 23 25 35 36 37 39 41 42 43 44 47 48 50 51 56 57 59 61 65 66 67 70
b 10 1 2 4 6 7 8 10 11 12 13 14 15 16 17 19 20 21 23 25 26 27 28 31 33 34 35 36 37 38 39 41 42 43 44 47 48 49 50 51 52 53 54 56 57 58 59 60 61 62 63 64 65 66 67 68 70
b 11 1 2 6 7 8 10 11 12 14 15 16 17 19 20 21 22 23 25 26 27 28 31 33 34 35 36 37 38 39 41 42 43 44 47 48 49 50 51 52 53 54 56 57 58 59 60 61 62 63 64 65 66 67 68 70
b 12 1 2 6 7 8 10 11 12 14 15 16 17 19 20 21 22 23 25 27 28 29 31 33 34 35 36 37 38 39 41 42 43 44 47 48 50 51 52 53 54 56 57 58 59 60 61 62 63 64 65 66 67 68 70
b 13 1 2 6 7 8 10 11 14 15 16 17 19 20 21 22 25 27 28 29 30 31 33 35 36 37 39 42 43 44 47 50 51 53 54 57 58 59 60 61 62 63 64 65 66 67 68 70
b 14 1 2 7 8 10 11 15 22 25 27 29 30 31 33 35 36 42 43 44 50 51 53 54 55 57 60 62 63 64 65 66 68 70
b 15 2 4 6 7 10 13 14 15 16 18 28 34 35 36 39 42 43 45 48 51 53 54 57 58 59 62 63 65 70
1 2
1 9
1 10
1 15
2 3
3 4
4 5
4 8
5 6
5 7
10 11
11 12
12 13
13 14
